(set-logic QF_SLIA)
(declare-fun a () String)
(declare-fun b () String)
(assert (= (str.at (str.replace_all (str.replace (str.replace (str.from_int (str.len b))
"" (str.from_int (str.len a))) "" "") (str.from_int (str.len a))
(str.replace (str.replace (str.from_int (str.len b)) (str.from_int 0)
(str.from_int (str.len a))) (str.from_int (str.len b)) (str.from_int (str.len a)))) 0)
(str.replace (str.at (str.replace_all (str.from_int 0) b (str.at "" 0)) 0)
(str.at (str.replace_all (str.from_int 0) b (str.at "" 0)) 0) (str.at "" 0))))
(check-sat)